c ! encoding i-pc 61
p cnf 342 1618
-62 0
62 -63 0
62 -64 0
62 -65 0
-2 -66 0
3 -66 0
-4 -66 0
-13 -66 0
16 -66 0
19 -66 0
-20 -66 0
32 -66 0
-33 -66 0
-34 -66 0
-37 -66 0
38 -66 0
-39 -66 0
-40 -66 0
-41 -66 0
42 -66 0
-43 -66 0
-44 -66 0
-45 -66 0
-46 -66 0
49 -66 0
-50 -66 0
-51 -66 0
-52 -66 0
-53 -66 0
-54 -66 0
-55 -66 0
56 -66 0
-57 -66 0
-58 -66 0
-59 -66 0
60 -66 0
-61 -66 0
66 -67 0
-15 -67 0
65 67 -68 0
68 -69 0
-14 -69 0
64 69 -70 0
-18 -71 0
-24 -71 0
-25 -71 0
-26 -71 0
-27 -71 0
-28 -71 0
70 -72 0
71 -72 0
72 -73 0
30 -73 0
2 -74 0
-3 -74 0
-4 -74 0
13 -74 0
-14 -74 0
-15 -74 0
-16 -74 0
-18 -74 0
-19 -74 0
-20 -74 0
24 -74 0
-25 -74 0
-26 -74 0
-27 -74 0
-32 -74 0
33 -74 0
-34 -74 0
-37 -74 0
-38 -74 0
39 -74 0
-40 -74 0
-41 -74 0
-42 -74 0
-43 -74 0
-44 -74 0
45 -74 0
-46 -74 0
-49 -74 0
-50 -74 0
51 -74 0
-52 -74 0
53 -74 0
-54 -74 0
-55 -74 0
-56 -74 0
57 -74 0
-58 -74 0
-59 -74 0
-60 -74 0
-61 -74 0
74 -75 0
28 -75 0
-2 -76 0
-3 -76 0
4 -76 0
-13 -76 0
-15 -76 0
-16 -76 0
-18 -76 0
-19 -76 0
-20 -76 0
24 -76 0
25 -76 0
-26 -76 0
-27 -76 0
-32 -76 0
33 -76 0
-34 -76 0
37 -76 0
-38 -76 0
-39 -76 0
-40 -76 0
-41 -76 0
-42 -76 0
-43 -76 0
44 -76 0
-45 -76 0
-46 -76 0
-49 -76 0
50 -76 0
-51 -76 0
-52 -76 0
-53 -76 0
-54 -76 0
-55 -76 0
56 -76 0
-57 -76 0
58 -76 0
-59 -76 0
-60 -76 0
-61 -76 0
76 -77 0
14 -77 0
62 -78 0
77 78 -79 0
79 -80 0
-28 -80 0
75 80 -81 0
81 -82 0
-30 -82 0
73 82 -83 0
83 -84 0
63 84 -85 0
-5 -86 0
-7 -86 0
-8 -86 0
-9 -86 0
-10 -86 0
-12 -86 0
-17 -86 0
-23 -86 0
-29 -86 0
-35 -86 0
85 -87 0
86 -87 0
87 -88 0
11 -88 0
62 -89 0
62 -90 0
62 -91 0
62 -92 0
-9 -93 0
10 -93 0
-15 -93 0
-16 -93 0
17 -93 0
33 -93 0
-34 -93 0
-35 -93 0
38 -93 0
-39 -93 0
-40 -93 0
42 -93 0
-43 -93 0
-44 -93 0
-45 -93 0
-49 -93 0
50 -93 0
-57 -93 0
-58 -93 0
59 -93 0
-60 -93 0
93 -94 0
-37 -94 0
92 94 -95 0
-7 -96 0
-23 -96 0
-41 -96 0
-46 -96 0
-51 -96 0
-52 -96 0
-53 -96 0
-54 -96 0
-55 -96 0
56 -96 0
-61 -96 0
95 -97 0
96 -97 0
97 -98 0
19 -98 0
62 -99 0
98 99 -100 0
-3 -101 0
-4 -101 0
-5 -101 0
-8 -101 0
-20 -101 0
-32 -101 0
100 -102 0
101 -102 0
102 -103 0
2 -103 0
62 -104 0
62 -105 0
62 -106 0
9 -107 0
-15 -107 0
16 -107 0
32 -107 0
-34 -107 0
38 -107 0
-39 -107 0
-40 -107 0
42 -107 0
-43 -107 0
-44 -107 0
-45 -107 0
49 -107 0
-50 -107 0
-57 -107 0
-58 -107 0
-59 -107 0
60 -107 0
107 -108 0
-8 -108 0
106 108 -109 0
109 -110 0
-33 -110 0
105 110 -111 0
111 -112 0
-37 -112 0
104 112 -113 0
-3 -114 0
-4 -114 0
-17 -114 0
-35 -114 0
113 -115 0
114 -115 0
115 -116 0
5 -116 0
3 -117 0
-4 -117 0
8 -117 0
-9 -117 0
-15 -117 0
-16 -117 0
-32 -117 0
34 -117 0
-43 -117 0
44 -117 0
-45 -117 0
-49 -117 0
50 -117 0
58 -117 0
-59 -117 0
-60 -117 0
117 -118 0
17 -118 0
62 -119 0
118 119 -120 0
-35 -121 0
-38 -121 0
-39 -121 0
-40 -121 0
-42 -121 0
-57 -121 0
120 -122 0
121 -122 0
122 -123 0
37 -123 0
62 -124 0
123 124 -125 0
125 -126 0
-33 -126 0
126 -127 0
-5 -127 0
116 127 -128 0
-7 -129 0
-20 -129 0
-23 -129 0
-41 -129 0
-46 -129 0
-51 -129 0
-52 -129 0
-53 -129 0
-54 -129 0
-55 -129 0
56 -129 0
-61 -129 0
128 -130 0
129 -130 0
130 -131 0
19 -131 0
62 -132 0
-3 -133 0
4 -133 0
-5 -133 0
-7 -133 0
-8 -133 0
9 -133 0
-16 -133 0
17 -133 0
20 -133 0
-23 -133 0
31 -133 0
-32 -133 0
-33 -133 0
-34 -133 0
-35 -133 0
37 -133 0
-38 -133 0
-39 -133 0
-40 -133 0
-41 -133 0
-42 -133 0
43 -133 0
-44 -133 0
-45 -133 0
-46 -133 0
49 -133 0
-50 -133 0
-51 -133 0
-52 -133 0
-53 -133 0
-54 -133 0
55 -133 0
-56 -133 0
-57 -133 0
-58 -133 0
-59 -133 0
-60 -133 0
61 -133 0
133 -134 0
-15 -134 0
132 134 -135 0
135 -136 0
-19 -136 0
131 136 -137 0
137 -138 0
-10 -138 0
138 -139 0
-2 -139 0
103 139 -140 0
140 -141 0
-13 -141 0
141 -142 0
91 142 -143 0
143 -144 0
90 144 -145 0
145 -146 0
-14 -146 0
89 146 -147 0
-12 -148 0
-18 -148 0
-24 -148 0
-25 -148 0
-26 -148 0
-27 -148 0
-28 -148 0
-29 -148 0
147 -149 0
148 -149 0
149 -150 0
30 -150 0
62 -151 0
62 -152 0
62 -153 0
62 -154 0
-3 -155 0
-4 -155 0
5 -155 0
-7 -155 0
9 -155 0
-10 -155 0
-12 -155 0
-23 -155 0
25 -155 0
-27 -155 0
34 -155 0
-35 -155 0
-37 -155 0
38 -155 0
-39 -155 0
-40 -155 0
-41 -155 0
42 -155 0
-43 -155 0
-44 -155 0
-45 -155 0
-46 -155 0
-49 -155 0
50 -155 0
-51 -155 0
-52 -155 0
-53 -155 0
-54 -155 0
-55 -155 0
56 -155 0
-57 -155 0
-58 -155 0
59 -155 0
-60 -155 0
-61 -155 0
155 -156 0
24 -156 0
1 -157 0
-3 -157 0
-4 -157 0
-7 -157 0
-9 -157 0
-10 -157 0
12 -157 0
-25 -157 0
34 -157 0
-37 -157 0
-38 -157 0
-40 -157 0
41 -157 0
-42 -157 0
-43 -157 0
45 -157 0
-46 -157 0
-52 -157 0
53 -157 0
-55 -157 0
-56 -157 0
57 -157 0
-58 -157 0
-60 -157 0
-61 -157 0
157 -158 0
27 -158 0
3 -159 0
-4 -159 0
-7 -159 0
-9 -159 0
10 -159 0
-12 -159 0
25 -159 0
-34 -159 0
36 -159 0
37 -159 0
-38 -159 0
-40 -159 0
-41 -159 0
-42 -159 0
43 -159 0
-45 -159 0
-46 -159 0
-52 -159 0
-53 -159 0
55 -159 0
-56 -159 0
-57 -159 0
-58 -159 0
-60 -159 0
61 -159 0
159 -160 0
-27 -160 0
158 160 -161 0
-5 -162 0
23 -162 0
-35 -162 0
-39 -162 0
-44 -162 0
49 -162 0
-50 -162 0
-51 -162 0
-54 -162 0
-59 -162 0
161 -163 0
162 -163 0
163 -164 0
-24 -164 0
156 164 -165 0
165 -166 0
-33 -166 0
166 -167 0
-28 -167 0
154 167 -168 0
168 -169 0
153 169 -170 0
170 -171 0
-19 -171 0
152 171 -172 0
172 -173 0
-29 -173 0
173 -174 0
151 174 -175 0
-2 -176 0
-8 -176 0
-13 -176 0
-15 -176 0
-16 -176 0
-17 -176 0
-18 -176 0
-20 -176 0
-26 -176 0
-32 -176 0
175 -177 0
176 -177 0
177 -178 0
14 -178 0
62 -179 0
62 -180 0
-7 -181 0
12 -181 0
13 -181 0
-18 -181 0
29 -181 0
-37 -181 0
-38 -181 0
-39 -181 0
40 -181 0
-41 -181 0
-42 -181 0
-43 -181 0
-44 -181 0
-45 -181 0
46 -181 0
49 -181 0
-50 -181 0
-51 -181 0
52 -181 0
-53 -181 0
-54 -181 0
-55 -181 0
-56 -181 0
-57 -181 0
58 -181 0
-59 -181 0
-60 -181 0
-61 -181 0
181 -182 0
-25 -182 0
180 182 -183 0
183 -184 0
-17 -184 0
179 184 -185 0
-9 -186 0
-15 -186 0
-27 -186 0
-35 -186 0
185 -187 0
186 -187 0
187 -188 0
33 -188 0
62 -189 0
-7 -190 0
12 -190 0
13 -190 0
-17 -190 0
-18 -190 0
-29 -190 0
35 -190 0
-37 -190 0
-38 -190 0
-39 -190 0
40 -190 0
-41 -190 0
-42 -190 0
-43 -190 0
-44 -190 0
-45 -190 0
46 -190 0
49 -190 0
-50 -190 0
-51 -190 0
52 -190 0
-53 -190 0
-54 -190 0
-55 -190 0
-56 -190 0
-57 -190 0
58 -190 0
-59 -190 0
-60 -190 0
-61 -190 0
190 -191 0
27 -191 0
62 -192 0
191 192 -193 0
193 -194 0
-15 -194 0
189 194 -195 0
-9 -196 0
-25 -196 0
195 -197 0
196 -197 0
197 -198 0
-33 -198 0
188 198 -199 0
-3 -200 0
-5 -200 0
-8 -200 0
-26 -200 0
-32 -200 0
199 -201 0
200 -201 0
201 -202 0
2 -202 0
62 -203 0
202 203 -204 0
-4 -205 0
-10 -205 0
-16 -205 0
-19 -205 0
-20 -205 0
-23 -205 0
-24 -205 0
-28 -205 0
-34 -205 0
204 -206 0
205 -206 0
206 -207 0
22 -207 0
62 -208 0
62 -209 0
62 -210 0
-3 -211 0
-4 -211 0
5 -211 0
-10 -211 0
-12 -211 0
-16 -211 0
-17 -211 0
18 -211 0
27 -211 0
-29 -211 0
-32 -211 0
34 -211 0
-35 -211 0
-37 -211 0
-38 -211 0
39 -211 0
-40 -211 0
-41 -211 0
-42 -211 0
-43 -211 0
-44 -211 0
45 -211 0
-46 -211 0
-49 -211 0
-50 -211 0
51 -211 0
-52 -211 0
53 -211 0
-54 -211 0
-55 -211 0
-56 -211 0
57 -211 0
-58 -211 0
-59 -211 0
-60 -211 0
-61 -211 0
211 -212 0
8 -212 0
3 -213 0
-4 -213 0
-5 -213 0
10 -213 0
-12 -213 0
-16 -213 0
-17 -213 0
18 -213 0
-27 -213 0
29 -213 0
32 -213 0
-34 -213 0
-35 -213 0
37 -213 0
-38 -213 0
-39 -213 0
-40 -213 0
-41 -213 0
-42 -213 0
43 -213 0
-44 -213 0
-45 -213 0
-46 -213 0
-49 -213 0
-50 -213 0
51 -213 0
-52 -213 0
-53 -213 0
-54 -213 0
55 -213 0
-56 -213 0
-57 -213 0
-58 -213 0
59 -213 0
-60 -213 0
-61 -213 0
213 -214 0
-8 -214 0
212 214 -215 0
215 -216 0
-33 -216 0
210 216 -217 0
217 -218 0
-28 -218 0
209 218 -219 0
-15 -220 0
-26 -220 0
219 -221 0
220 -221 0
221 -222 0
-2 -222 0
208 222 -223 0
-7 -224 0
-9 -224 0
-13 -224 0
-20 -224 0
-23 -224 0
-24 -224 0
-25 -224 0
223 -225 0
224 -225 0
225 -226 0
19 -226 0
62 -227 0
15 -228 0
-17 -228 0
-23 -228 0
24 -228 0
25 -228 0
-27 -228 0
-29 -228 0
-33 -228 0
35 -228 0
42 -228 0
-44 -228 0
-45 -228 0
-46 -228 0
49 -228 0
-50 -228 0
-51 -228 0
-52 -228 0
-54 -228 0
-55 -228 0
56 -228 0
-57 -228 0
-59 -228 0
60 -228 0
-61 -228 0
228 -229 0
-13 -229 0
227 229 -230 0
-3 -231 0
-4 -231 0
-5 -231 0
-7 -231 0
-8 -231 0
-9 -231 0
10 -231 0
-12 -231 0
-16 -231 0
-18 -231 0
-20 -231 0
-26 -231 0
-28 -231 0
-32 -231 0
-34 -231 0
-37 -231 0
38 -231 0
-39 -231 0
-40 -231 0
-41 -231 0
-43 -231 0
-53 -231 0
-58 -231 0
230 -232 0
231 -232 0
232 -233 0
2 -233 0
5 -234 0
7 -234 0
-8 -234 0
-12 -234 0
-13 -234 0
-17 -234 0
32 -234 0
-38 -234 0
-39 -234 0
40 -234 0
-41 -234 0
-43 -234 0
-44 -234 0
-45 -234 0
46 -234 0
49 -234 0
-50 -234 0
-51 -234 0
58 -234 0
-59 -234 0
-60 -234 0
-61 -234 0
234 -235 0
18 -235 0
62 -236 0
235 236 -237 0
-4 -238 0
-10 -238 0
-16 -238 0
-25 -238 0
-26 -238 0
-29 -238 0
-34 -238 0
-35 -238 0
-37 -238 0
-42 -238 0
52 -238 0
-53 -238 0
-54 -238 0
-55 -238 0
-56 -238 0
-57 -238 0
237 -239 0
238 -239 0
239 -240 0
28 -240 0
62 -241 0
-4 -242 0
5 -242 0
7 -242 0
-8 -242 0
26 -242 0
-32 -242 0
34 -242 0
-35 -242 0
-37 -242 0
-38 -242 0
40 -242 0
-41 -242 0
-42 -242 0
-43 -242 0
-45 -242 0
46 -242 0
52 -242 0
-53 -242 0
-55 -242 0
-56 -242 0
-57 -242 0
58 -242 0
-60 -242 0
-61 -242 0
242 -243 0
-25 -243 0
241 243 -244 0
-10 -245 0
-12 -245 0
-13 -245 0
-16 -245 0
-17 -245 0
-29 -245 0
-39 -245 0
-44 -245 0
49 -245 0
-50 -245 0
-51 -245 0
-54 -245 0
-59 -245 0
244 -246 0
245 -246 0
246 -247 0
18 -247 0
62 -248 0
247 248 -249 0
249 -250 0
-28 -250 0
240 250 -251 0
-3 -252 0
-9 -252 0
-15 -252 0
-20 -252 0
-23 -252 0
-24 -252 0
-27 -252 0
-33 -252 0
251 -253 0
252 -253 0
253 -254 0
21 -254 0
62 -255 0
-5 -256 0
-23 -256 0
24 -256 0
25 -256 0
-29 -256 0
-34 -256 0
35 -256 0
38 -256 0
-39 -256 0
-40 -256 0
-41 -256 0
49 -256 0
-50 -256 0
-51 -256 0
-53 -256 0
-54 -256 0
-55 -256 0
56 -256 0
-58 -256 0
-59 -256 0
60 -256 0
-61 -256 0
256 -257 0
4 -257 0
62 -258 0
257 258 -259 0
-7 -260 0
-12 -260 0
-26 -260 0
-32 -260 0
-37 -260 0
42 -260 0
-43 -260 0
-44 -260 0
-45 -260 0
-46 -260 0
-52 -260 0
-57 -260 0
259 -261 0
260 -261 0
261 -262 0
8 -262 0
62 -263 0
262 263 -264 0
264 -265 0
-20 -265 0
265 -266 0
-28 -266 0
255 266 -267 0
-3 -268 0
-9 -268 0
-13 -268 0
-16 -268 0
-17 -268 0
-18 -268 0
-27 -268 0
-33 -268 0
267 -269 0
268 -269 0
269 -270 0
15 -270 0
-3 -271 0
-5 -271 0
6 -271 0
7 -271 0
-8 -271 0
-9 -271 0
-12 -271 0
-13 -271 0
17 -271 0
-18 -271 0
20 -271 0
-23 -271 0
-24 -271 0
-32 -271 0
-35 -271 0
-37 -271 0
-38 -271 0
-39 -271 0
-40 -271 0
41 -271 0
-42 -271 0
-43 -271 0
-44 -271 0
45 -271 0
-46 -271 0
49 -271 0
-50 -271 0
-51 -271 0
-52 -271 0
53 -271 0
-54 -271 0
-55 -271 0
-56 -271 0
57 -271 0
-58 -271 0
-59 -271 0
-60 -271 0
-61 -271 0
271 -272 0
33 -272 0
62 -273 0
3 -274 0
-9 -274 0
12 -274 0
32 -274 0
-38 -274 0
39 -274 0
-41 -274 0
-43 -274 0
-44 -274 0
46 -274 0
-59 -274 0
-61 -274 0
274 -275 0
58 -275 0
62 -276 0
275 276 -277 0
-5 -278 0
-8 -278 0
23 -278 0
-35 -278 0
-37 -278 0
-40 -278 0
-42 -278 0
-45 -278 0
-49 -278 0
50 -278 0
-51 -278 0
52 -278 0
-53 -278 0
-54 -278 0
-55 -278 0
-56 -278 0
-57 -278 0
-60 -278 0
277 -279 0
278 -279 0
279 -280 0
-20 -280 0
273 280 -281 0
-7 -282 0
13 -282 0
-17 -282 0
-18 -282 0
-24 -282 0
281 -283 0
282 -283 0
283 -284 0
-33 -284 0
272 284 -285 0
-4 -286 0
-16 -286 0
-25 -286 0
-26 -286 0
-27 -286 0
-29 -286 0
-34 -286 0
285 -287 0
286 -287 0
287 -288 0
28 -288 0
62 -289 0
62 -290 0
4 -291 0
-5 -291 0
12 -291 0
23 -291 0
-24 -291 0
26 -291 0
-29 -291 0
-37 -291 0
38 -291 0
-39 -291 0
-40 -291 0
-41 -291 0
-42 -291 0
-43 -291 0
-44 -291 0
-45 -291 0
46 -291 0
-49 -291 0
50 -291 0
-51 -291 0
-52 -291 0
-53 -291 0
54 -291 0
-55 -291 0
-56 -291 0
57 -291 0
-58 -291 0
-59 -291 0
-60 -291 0
-61 -291 0
291 -292 0
-8 -292 0
290 292 -293 0
-7 -294 0
13 -294 0
-16 -294 0
-17 -294 0
-18 -294 0
-25 -294 0
293 -295 0
294 -295 0
295 -296 0
-20 -296 0
289 296 -297 0
-3 -298 0
-9 -298 0
-27 -298 0
-32 -298 0
-34 -298 0
-35 -298 0
297 -299 0
298 -299 0
299 -300 0
33 -300 0
-3 -301 0
4 -301 0
-29 -301 0
-34 -301 0
35 -301 0
-37 -301 0
-38 -301 0
39 -301 0
52 -301 0
-53 -301 0
-54 -301 0
-57 -301 0
58 -301 0
-59 -301 0
301 -302 0
27 -302 0
3 -303 0
-4 -303 0
29 -303 0
34 -303 0
-35 -303 0
-37 -303 0
38 -303 0
-39 -303 0
-52 -303 0
-53 -303 0
54 -303 0
57 -303 0
-58 -303 0
-59 -303 0
303 -304 0
-27 -304 0
302 304 -305 0
-5 -306 0
-16 -306 0
-17 -306 0
-40 -306 0
-41 -306 0
-42 -306 0
-43 -306 0
-44 -306 0
-45 -306 0
46 -306 0
-49 -306 0
50 -306 0
-51 -306 0
-55 -306 0
-56 -306 0
-60 -306 0
-61 -306 0
305 -307 0
306 -307 0
307 -308 0
18 -308 0
62 -309 0
308 309 -310 0
7 -311 0
-8 -311 0
-9 -311 0
-12 -311 0
-13 -311 0
-23 -311 0
-24 -311 0
-25 -311 0
-26 -311 0
-32 -311 0
310 -312 0
311 -312 0
312 -313 0
20 -313 0
62 -314 0
-3 -315 0
4 -315 0
-5 -315 0
-8 -315 0
9 -315 0
26 -315 0
-27 -315 0
-32 -315 0
-34 -315 0
35 -315 0
37 -315 0
-38 -315 0
-39 -315 0
-40 -315 0
-42 -315 0
43 -315 0
-44 -315 0
-45 -315 0
-52 -315 0
-53 -315 0
-54 -315 0
55 -315 0
-57 -315 0
-58 -315 0
59 -315 0
-60 -315 0
315 -316 0
-29 -316 0
314 316 -317 0
-7 -318 0
-12 -318 0
13 -318 0
-16 -318 0
-17 -318 0
-18 -318 0
-23 -318 0
24 -318 0
-25 -318 0
-41 -318 0
-46 -318 0
-49 -318 0
-50 -318 0
51 -318 0
-56 -318 0
-61 -318 0
317 -319 0
318 -319 0
319 -320 0
-20 -320 0
313 320 -321 0
321 -322 0
-33 -322 0
300 322 -323 0
323 -324 0
-28 -324 0
288 324 -325 0
325 -326 0
-15 -326 0
270 326 -327 0
327 -328 0
-10 -328 0
328 -329 0
-21 -329 0
254 329 -330 0
330 -331 0
-2 -331 0
233 331 -332 0
332 -333 0
-19 -333 0
226 333 -334 0
334 -335 0
-22 -335 0
207 335 -336 0
336 -337 0
-14 -337 0
178 337 -338 0
338 -339 0
-30 -339 0
340 -341 0
-11 -341 0
342 0
-47 0
-48 0
-340 341 0
-339 340 0
-338 339 0
-337 338 0
-336 337 0
-335 336 0
-328 329 0
-327 328 0
-326 327 0
-325 326 0
-318 319 0
-315 316 0
-311 312 0
-306 307 0
-304 305 0
-303 304 0
-302 305 0
-301 302 0
-299 300 0
-297 299 0
-296 297 0
-293 295 0
-292 293 0
-291 292 0
-54 291 303 0
-288 325 0
-300 323 0
-287 288 0
-286 287 0
-321 322 0
-285 287 0
-320 321 0
-284 285 0
-319 320 0
-283 284 0
11 341 0
-317 319 0
-281 283 0
-279 280 0
-277 279 0
-274 275 0
-313 321 0
-272 285 0
-324 325 0
-6 271 0
-269 270 0
-266 267 0
-265 266 0
-262 264 0
-261 262 0
-256 257 0
-253 254 0
-312 313 0
-252 253 0
-250 251 0
-249 250 0
-247 249 0
-246 247 0
-244 246 0
-26 242 291 315 0
-240 251 0
-238 239 0
-235 237 0
-310 312 0
-232 233 0
-231 232 0
-230 232 0
-308 310 0
-229 230 0
-307 308 0
-225 226 0
-224 225 0
-223 225 0
-222 223 0
-219 221 0
-218 219 0
-217 218 0
-207 336 0
-206 207 0
-237 239 0
-94 95 0
-93 94 0
23 86 96 129 133 155 205 224 228 252 256 271 311 318 0
-85 87 0
17 86 114 119 176 184 190 211 213 228 234 245 268 282 294 306 318 0
-24 74 76 156 228 256 318 0
-118 120 0
-83 84 0
55 66 74 76 96 129 155 157 181 190 211 228 238 242 256 271 278 291 306 0
-51 74 211 213 318 0
-77 79 0
-115 116 0
-81 82 0
-162 163 0
-79 80 0
-121 122 0
-76 77 0
-322 323 0
-298 299 0
-28 75 154 209 240 255 288 0
35 86 93 114 121 133 155 162 186 211 213 238 242 271 278 298 303 0
-282 283 0
-221 222 0
-25 76 155 159 180 228 241 256 0
10 86 138 155 157 205 211 238 245 328 0
-131 137 0
-75 81 0
7 86 96 129 133 155 157 159 181 190 224 231 260 282 294 318 0
-56 66 76 96 129 155 228 256 0
-173 174 0
-74 75 0
54 66 74 76 96 129 133 155 162 181 190 211 213 228 238 245 256 271 278 301 315 0
-102 103 0
-57 74 157 211 271 291 303 0
-129 130 0
-139 140 0
26 71 74 76 148 176 200 220 231 238 260 286 311 0
-243 244 0
-4 76 133 257 291 301 315 0
-53 74 157 211 271 0
-332 333 0
-184 185 0
-305 307 0
8 86 101 108 133 176 200 214 231 234 242 263 271 278 292 311 315 0
49 74 76 93 117 155 211 213 278 291 306 318 0
-197 198 0
43 66 74 76 93 107 117 155 157 181 190 211 231 234 242 260 271 274 291 306 0
-166 167 0
-213 214 0
-5 116 155 211 234 242 0
-58 76 117 181 190 234 242 275 301 0
-205 206 0
-1 157 0
-160 161 0
-271 272 0
-234 235 0
44 66 74 93 107 133 155 162 181 190 211 213 228 234 245 260 271 274 291 306 315 0
4 66 74 101 114 117 155 157 159 205 211 213 231 238 242 258 286 303 0
-10 93 159 213 231 0
-3 66 117 159 213 274 303 0
41 66 74 76 96 129 133 155 159 181 190 211 213 231 234 242 256 274 291 306 318 0
38 74 76 121 133 157 159 181 190 211 213 234 242 271 274 301 315 0
-73 83 0
-37 76 92 104 123 133 159 213 315 0
-257 259 0
-214 215 0
-147 149 0
-163 164 0
34 66 74 76 93 107 133 159 205 213 231 238 256 286 298 301 315 0
-233 332 0
-183 184 0
40 66 74 76 93 107 121 133 155 157 159 211 213 231 256 271 278 291 306 315 0
15 67 74 76 93 107 117 134 176 186 194 220 252 326 0
-7 234 242 271 311 0
-112 113 0
-211 212 0
42 74 76 121 133 157 159 181 190 211 213 238 242 271 278 291 306 315 0
-67 68 0
33 66 110 126 133 166 198 216 228 252 268 284 322 0
2 66 76 139 176 203 222 331 0
-275 277 0
-72 73 0
5 86 101 127 133 162 200 213 231 256 271 278 291 306 315 0
-316 317 0
-280 281 0
50 66 74 107 133 162 181 190 211 213 228 234 245 256 271 318 0
-133 134 0
-59 93 155 213 315 0
-270 327 0
9 86 93 117 157 159 186 196 224 231 252 268 271 274 298 311 0
20 66 74 76 101 129 176 205 224 231 252 265 280 296 320 0
14 69 74 78 146 337 0
-143 144 0
-259 261 0
16 74 76 93 117 133 176 205 211 213 231 238 245 268 286 294 306 318 0
-80 81 0
-295 296 0
25 71 74 148 157 182 196 224 238 243 286 294 311 318 0
-120 122 0
-11 88 0
56 74 133 157 159 181 190 211 213 238 242 271 278 291 306 318 0
60 74 76 93 117 133 155 157 159 181 190 211 213 234 242 271 278 291 306 315 0
-71 72 0
-216 217 0
-22 63 90 151 207 0
-49 66 107 133 162 181 190 228 234 245 256 271 0
-134 135 0
52 66 74 76 96 129 133 155 157 159 211 213 228 260 271 291 303 315 0
-251 253 0
57 66 76 93 107 121 133 155 159 181 190 213 228 238 242 260 278 301 315 0
-17 93 118 133 179 271 0
-267 269 0
-14 64 77 89 178 0
-334 335 0
-196 197 0
-60 66 107 228 256 0
-200 201 0
-226 334 0
-185 187 0
61 66 74 76 96 129 155 157 181 190 211 213 228 234 242 256 271 274 291 306 318 0
-69 70 0
12 86 148 155 159 211 213 231 234 245 260 271 311 318 0
-137 138 0
-294 295 0
28 71 80 148 167 205 218 231 250 266 324 0
-110 111 0
-44 76 117 0
-68 69 0
32 74 76 101 117 133 176 200 211 231 242 260 271 298 311 315 0
-84 85 0
13 66 76 141 176 224 229 234 245 268 271 311 0
-116 128 0
-19 66 98 131 152 226 0
-171 172 0
-16 66 107 0
-136 137 0
-38 66 93 107 155 231 256 291 303 0
-30 73 150 0
46 66 74 76 96 129 133 155 157 159 211 213 228 260 271 318 0
-108 109 0
-39 74 211 274 301 0
3 74 76 101 114 133 155 157 200 211 231 252 268 271 298 301 315 0
-107 108 0
-138 139 0
-87 88 0
-15 65 132 189 228 270 0
-150 340 0
-32 66 107 213 234 274 0
-42 66 93 107 155 228 260 0
-86 87 0
-167 168 0
-13 74 181 190 227 282 294 318 0
-27 158 191 211 302 0
-228 229 0
-82 83 0
-12 157 181 190 274 291 0
-114 115 0
-2 74 103 202 208 233 0
-215 216 0
-149 150 0
-156 165 0
58 66 74 93 107 133 155 157 159 211 213 231 256 271 276 291 303 315 0
-126 127 0
-21 91 153 254 0
-264 265 0
-8 106 117 212 262 290 0
-117 118 0
-260 261 0
-254 330 0
59 66 74 76 107 117 133 162 181 190 211 228 234 245 256 271 274 291 301 303 0
-101 102 0
-66 67 0
27 71 74 76 148 155 160 186 192 213 228 252 268 286 298 304 315 0
-239 240 0
-95 97 0
-245 246 0
-97 98 0
-98 100 0
-50 76 93 117 155 278 291 306 0
-36 159 0
-100 102 0
-103 140 0
-178 338 0
-268 269 0
-9 107 133 155 315 0
-155 156 0
-18 211 213 235 247 308 0
-109 110 0
-111 112 0
24 71 148 164 205 224 252 271 282 291 311 0
-113 115 0
-34 117 155 157 211 242 303 0
-123 125 0
-31 133 0
-278 279 0
-40 181 190 234 242 0
19 74 76 99 136 171 205 333 0
-125 126 0
-127 128 0
-122 123 0
-190 191 0
-128 130 0
-130 131 0
-20 133 271 273 289 313 0
-220 221 0
-43 133 159 213 315 0
-186 187 0
-323 324 0
-55 133 159 213 315 0
-61 133 159 0
-135 136 0
53 66 76 96 129 133 155 159 181 190 213 231 238 242 256 278 291 301 303 315 0
-140 141 0
-141 142 0
-142 143 0
-144 145 0
-145 146 0
-212 215 0
-146 147 0
-161 163 0
-148 149 0
39 66 76 93 107 121 133 155 162 181 190 213 231 234 245 256 271 291 303 315 0
-70 72 0
-41 157 271 0
-157 158 0
-23 162 278 291 0
-169 170 0
-159 160 0
-45 74 157 211 271 0
-204 206 0
-164 165 0
18 71 74 76 148 176 181 190 231 236 248 268 271 282 294 309 318 0
-176 177 0
-165 166 0
-168 169 0
30 82 339 0
-170 171 0
-172 173 0
-242 243 0
-174 175 0
-175 177 0
51 66 76 96 129 133 155 162 181 190 228 234 245 256 271 278 291 306 0
-177 178 0
-331 332 0
-329 330 0
45 66 76 93 107 117 133 155 159 181 190 213 228 234 242 260 278 291 306 315 0
-29 181 213 303 314 0
29 86 148 173 190 211 228 238 245 256 286 291 301 316 0
-46 181 190 234 242 274 291 306 0
-52 181 190 238 242 278 301 0
-181 182 0
-330 331 0
-182 183 0
-333 334 0
-187 188 0
-96 97 0
-188 199 0
-158 161 0
-35 190 228 256 301 315 0
-33 74 76 93 105 188 210 272 300 0
-191 193 0
-193 194 0
-194 195 0
-195 197 0
37 66 74 94 112 124 155 157 181 190 211 231 238 242 260 271 278 291 301 303 0
-198 199 0
-199 201 0
-201 202 0
-202 204 0
